(set-logic QF_LIA)
(set-info :ran/ran_2_2.smt2)
(set-info :smt-lib-version 2.0)
(declare-fun x0 () Real)
(declare-fun x1 () Real)
(define-fun ie0 () Bool (<= (+ (* (- 60) x1) (* 3 x1) (* (- 59) x0) (* (- 97) x1) (* 49 x0) ) 25))
(define-fun ie1 () Bool (<= (+ (* (- 25) x0) (* (- 77) x1) (* (- 39) x1) ) (- 70)))
(define-fun ie2 () Bool (<= (+ (* (- 56) x1) (* (- 94) x1) (* 89 x0) ) 15))
(define-fun ie3 () Bool (<= (+ (* 79 x0) (* 43 x0) (* (- 67) x0) (* 39 x0) ) 64))
(define-fun ie4 () Bool (<= (+ (* 34 x0) (* (- 29) x1) (* (- 90) x1) (* (- 85) x1) (* (- 40) x0) (* (- 38) x0) ) 21))
(define-fun ie5 () Bool (<= (+ (* (- 94) x1) (* (- 4) x1) (* (- 59) x0) (* 94 x0) (* (- 76) x1) (* 44 x0) (* 35 x0) (* 88 x1) ) 79))
(define-fun ie6 () Bool (<= (+ (* 17 x0) (* (- 14) x1) (* 49 x1) (* (- 36) x1) (* (- 18) x1) (* (- 96) x1) (* 86 x0) ) (- 66)))
(define-fun ie7 () Bool (<= (+ (* 57 x1) (* (- 54) x1) (* (- 53) x1) ) (- 60)))
(define-fun ie8 () Bool (<= (+ (* 85 x1) (* (- 72) x1) (* (- 74) x1) (* (- 100) x0) (* 61 x0) (* (- 77) x1) (* 39 x0) ) (- 76)))
(define-fun ie9 () Bool (<= (+ (* (- 85) x0) (* 76 x1) (* 90 x0) (* (- 65) x1) (* 89 x0) (* (- 50) x1) (* (- 43) x0) (* 81 x0) ) (- 83)))
(assert ie0)
(assert ie1)
(assert ie2)
(assert ie3)
(assert ie4)
(assert ie5)
(assert ie6)
(assert ie7)
(assert ie8)
(assert ie9)
(check-sat)
(exit)
